<?xml version = "1.0" standalone="yes"?>
<!-- This file has been generated by DOcplex version 2.23.222  -->
<CPLEXSolution version="1.0">
 <header
   problemName="CVRP"
   objectiveValue="12168.3"
  />
 <variables>
  <variable name="x_0_3" index="2" value="1.00000"/>
  <variable name="x_0_5" index="4" value="1.00000"/>
  <variable name="x_0_7" index="6" value="1.00000"/>
  <variable name="x_0_8" index="7" value="1.00000"/>
  <variable name="x_0_11" index="10" value="1.00000"/>
  <variable name="x_0_13" index="12" value="1.00000"/>
  <variable name="x_0_14" index="13" value="1.00000"/>
  <variable name="x_0_16" index="15" value="1.00000"/>
  <variable name="x_0_18" index="17" value="1.00000"/>
  <variable name="x_0_19" index="18" value="1.00000"/>
  <variable name="x_0_20" index="19" value="1.00000"/>
  <variable name="x_0_21" index="20" value="1.00000"/>
  <variable name="x_0_24" index="23" value="1.00000"/>
  <variable name="x_0_25" index="24" value="1.00000"/>
  <variable name="x_1_0" index="25" value="1.00000"/>
  <variable name="x_2_0" index="50" value="1.00000"/>
  <variable name="x_3_0" index="75" value="1.00000"/>
  <variable name="x_4_0" index="100" value="1.00000"/>
  <variable name="x_5_6" index="130" value="1.00000"/>
  <variable name="x_6_0" index="150" value="1.00000"/>
  <variable name="x_7_9" index="183" value="1.00000"/>
  <variable name="x_8_0" index="200" value="1.00000"/>
  <variable name="x_9_4" index="229" value="1.00000"/>
  <variable name="x_10_0" index="250" value="1.00000"/>
  <variable name="x_11_22" index="296" value="1.00000"/>
  <variable name="x_12_0" index="300" value="1.00000"/>
  <variable name="x_13_0" index="325" value="1.00000"/>
  <variable name="x_14_0" index="350" value="1.00000"/>
  <variable name="x_15_0" index="375" value="1.00000"/>
  <variable name="x_16_10" index="410" value="1.00000"/>
  <variable name="x_17_15" index="440" value="1.00000"/>
  <variable name="x_18_17" index="467" value="1.00000"/>
  <variable name="x_19_0" index="475" value="1.00000"/>
  <variable name="x_20_23" index="522" value="1.00000"/>
  <variable name="x_21_12" index="537" value="1.00000"/>
  <variable name="x_22_0" index="550" value="1.00000"/>
  <variable name="x_23_0" index="575" value="1.00000"/>
  <variable name="x_24_1" index="601" value="1.00000"/>
  <variable name="x_25_2" index="627" value="1.00000"/>
  <variable name="u_1" index="650" value="62.00000"/>
  <variable name="u_2" index="651" value="59.00000"/>
  <variable name="u_3" index="652" value="48.00000"/>
  <variable name="u_4" index="653" value="60.00000"/>
  <variable name="u_5" index="654" value="47.00000"/>
  <variable name="u_6" index="655" value="60.00000"/>
  <variable name="u_7" index="656" value="12.00000"/>
  <variable name="u_8" index="657" value="58.00000"/>
  <variable name="u_9" index="658" value="50.00000"/>
  <variable name="u_10" index="659" value="50.00000"/>
  <variable name="u_11" index="660" value="18.00000"/>
  <variable name="u_12" index="661" value="60.00000"/>
  <variable name="u_13" index="662" value="59.00000"/>
  <variable name="u_14" index="663" value="62.00000"/>
  <variable name="u_15" index="664" value="61.00000"/>
  <variable name="u_16" index="665" value="33.00000"/>
  <variable name="u_17" index="666" value="34.00000"/>
  <variable name="u_18" index="667" value="33.00000"/>
  <variable name="u_19" index="668" value="58.00000"/>
  <variable name="u_20" index="669" value="32.00000"/>
  <variable name="u_21" index="670" value="21.00000"/>
  <variable name="u_22" index="671" value="57.00000"/>
  <variable name="u_23" index="672" value="62.00000"/>
  <variable name="u_24" index="673" value="54.00000"/>
  <variable name="u_25" index="674" value="49.00000"/>
 </variables>
</CPLEXSolution>
